HFSDDW
20	6	2
0	15	1	57
0	26	1	60
0	24	1	25
0	73	1	78
0	75	1	93
0	61	1	69
0	16	1	1
0	3	1	21
0	77	1	59
0	22	1	37
0	61	1	20
0	89	1	47
0	50	1	69
0	6	1	5
0	91	1	35
0	31	1	91
0	15	1	57
0	79	1	84
0	32	1	47
0	78	1	48
LBCmax: 346
RELDUE
-1	316	2	7
-1	102	8	4
-1	137	6	7
-1	358	5	6
-1	345	2	2
-1	376	9	3
-1	307	8	7
-1	234	6	4
-1	71	9	9
-1	207	6	5
-1	271	9	5
-1	261	9	4
-1	371	7	6
-1	133	9	8
-1	62	5	8
-1	363	2	5
-1	270	4	3
-1	306	3	2
-1	68	3	9
-1	224	3	2
DDW
300	332
99	105
132	142
322	394
321	369
361	391
279	335
227	241
65	77
193	221
268	274
240	282
360	382
125	141
58	66
334	392
248	292
291	321
63	73
202	246
